

******************************************************************************
This program contains Ipopt, a library for large-scale nonlinear optimization.
 Ipopt is released as open source code under the Eclipse Public License (EPL).
         For more information visit https://github.com/coin-or/Ipopt
******************************************************************************

This is Ipopt version 3.14.11, running with linear solver MUMPS 5.5.1.

Number of nonzeros in equality constraint Jacobian...:        0
Number of nonzeros in inequality constraint Jacobian.:        4
Number of nonzeros in Lagrangian Hessian.............:        3

Total number of variables............................:        2
                     variables with only lower bounds:        0
                variables with lower and upper bounds:        2
                     variables with only upper bounds:        0
Total number of equality constraints.................:        0
Total number of inequality constraints...............:        2
        inequality constraints with only lower bounds:        0
   inequality constraints with lower and upper bounds:        0
        inequality constraints with only upper bounds:        2

iter    objective    inf_pr   inf_du lg(mu)  ||d||  lg(rg) alpha_du alpha_pr  ls
   0  1.5998010e+02 2.89e+00 3.17e+01  -1.0 0.00e+00    -  0.00e+00 0.00e+00   0
   1  1.3867505e+02 2.46e+00 2.96e+01  -1.0 2.67e+00    -  3.28e-02 1.57e-01f  1
   2  5.0824848e+01 0.00e+00 3.86e+01  -1.0 2.11e+00    -  3.19e-02 1.00e+00f  1
   3  1.2239881e+01 2.86e+00 2.02e+01  -1.0 6.43e+00    -  2.69e-01 4.75e-01f  1
   4  1.0808584e+01 0.00e+00 4.08e+00  -1.0 1.61e+00    -  8.28e-01 1.00e+00f  1
   5  7.5664964e+00 4.26e-04 5.03e-01  -1.0 6.96e-01    -  1.00e+00 1.00e+00f  1
   6  7.5744937e+00 0.00e+00 1.36e-03  -1.7 9.83e-02    -  1.00e+00 1.00e+00h  1
   7  7.5577406e+00 0.00e+00 2.07e-05  -3.8 1.19e-02    -  1.00e+00 1.00e+00h  1
   8  7.5575096e+00 0.00e+00 1.96e-09  -5.7 1.65e-04    -  1.00e+00 1.00e+00h  1
   9  7.5575078e+00 0.00e+00 2.00e-13  -8.6 1.34e-06    -  1.00e+00 1.00e+00h  1

Number of Iterations....: 9

                                   (scaled)                 (unscaled)
Objective...............:   7.5575077575971257e+00    7.5575077575971257e+00
Dual infeasibility......:   2.0021672993398196e-13    2.0021672993398196e-13
Constraint violation....:   0.0000000000000000e+00    0.0000000000000000e+00
Variable bound violation:   0.0000000000000000e+00    0.0000000000000000e+00
Complementarity.........:   2.5067146360655691e-09    2.5067146360655691e-09
Overall NLP error.......:   2.5067146360655691e-09    2.5067146360655691e-09


Number of objective function evaluations             = 10
Number of objective gradient evaluations             = 10
Number of equality constraint evaluations            = 0
Number of inequality constraint evaluations          = 10
Number of equality constraint Jacobian evaluations   = 0
Number of inequality constraint Jacobian evaluations = 10
Number of Lagrangian Hessian evaluations             = 9
Total seconds in IPOPT                               = 0.006

EXIT: Optimal Solution Found.
 
Ipopt 3.14.11: Optimal Solution Found
